5 5
3 11 1 36 0 52 4 31 2 33
2 13 0 18 4 41 1 58 3 56
2 24 4 73 3 31 1 55 0 10
2 60 3 2 0 15 4 3 1 43
2 31 0 70 4 67 3 56 1 63
-1
0 1 2 5
0 1 3 4 5
0 2 3 5
0 1 2 4 5
0 2 3 4 5
-2
15 62 198
19 104 155 269
134 195 197
91 63 92 187
119 237 226 351

334 9
6 21 17 2 14
1 8 19 13 24
5 20 10 15 4
0 16 12 23 9
7 11 18 22 3
